\ This file has been generated by DOcplex
\ ENCODING=ISO-8859-1
\Problem name: MIP Model

Minimize
 obj: t_0 + t_1 + t_2 + t_3 + t_4 + t_5 + t_6 + t_7
Subject To
 charge_ub_0: c_0 - d_0 <= 13.500000000000
 charge_ub_1: c_0 + c_1 - d_0 - d_1 <= 13.500000000000
 charge_ub_2: c_0 + c_1 + c_2 - d_0 - d_1 - d_2 <= 13.500000000000
 charge_ub_3: c_0 + c_1 + c_2 + c_3 - d_0 - d_1 - d_2 - d_3 <= 13.500000000000
 charge_ub_4: c_0 + c_1 + c_2 + c_3 + c_4 - d_0 - d_1 - d_2 - d_3 - d_4 <= 
              13.500000000000
 charge_ub_5: c_0 + c_1 + c_2 + c_3 + c_4 + c_5 - d_0 - d_1 - d_2 - d_3 - d_4
              - d_5 <= 13.500000000000
 charge_ub_6: c_0 + c_1 + c_2 + c_3 + c_4 + c_5 + c_6 - d_0 - d_1 - d_2 - d_3
              - d_4 - d_5 - d_6 <= 13.500000000000
 charge_ub_7: c_0 + c_1 + c_2 + c_3 + c_4 + c_5 + c_6 + c_7 - d_0 - d_1 - d_2
              - d_3 - d_4 - d_5 - d_6 - d_7 <= 13.500000000000
 charge_lb_0: c_0 - d_0 >= 0
 charge_lb_1: c_0 + c_1 - d_0 - d_1 >= 0
 charge_lb_2: c_0 + c_1 + c_2 - d_0 - d_1 - d_2 >= 0
 charge_lb_3: c_0 + c_1 + c_2 + c_3 - d_0 - d_1 - d_2 - d_3 >= 0
 charge_lb_4: c_0 + c_1 + c_2 + c_3 + c_4 - d_0 - d_1 - d_2 - d_3 - d_4 >= 0
 charge_lb_5: c_0 + c_1 + c_2 + c_3 + c_4 + c_5 - d_0 - d_1 - d_2 - d_3 - d_4
              - d_5 >= 0
 charge_lb_6: c_0 + c_1 + c_2 + c_3 + c_4 + c_5 + c_6 - d_0 - d_1 - d_2 - d_3
              - d_4 - d_5 - d_6 >= 0
 charge_lb_7: c_0 + c_1 + c_2 + c_3 + c_4 + c_5 + c_6 + c_7 - d_0 - d_1 - d_2
              - d_3 - d_4 - d_5 - d_6 - d_7 >= 0
 cost_0_0: - t_0 + 1.052631578947 c_0 - 0.950000000000 d_0 <= 2.048540748106
 cost_0_1: - t_0 + 1.111368421053 c_0 - 1.003010000000 d_0 <= 2.156368821450
 cost_0_2: - t_0 + 2.094736842105 c_0 - 1.890500000000 d_0 <= 4.064381468730
 cost_0_3: - t_0 + 2.105263157895 c_0 - 1.900000000000 d_0 <= 4.084805496211
 cost_1_0: - t_1 + 1.052631578947 c_1 - 0.950000000000 d_1 <= -0.109443855199
 cost_1_1: - t_1 + 1.063157894737 c_1 - 0.959500000000 d_1 <= -0.111649293751
 cost_1_2: - t_1 + 2.094736842105 c_1 - 1.890500000000 d_1 <= -0.219982271846
 cost_1_3: - t_1 + 2.105263157895 c_1 - 1.900000000000 d_1 <= -0.220087710398
 cost_2_0: - t_2 + 1.052631578947 c_2 - 0.950000000000 d_2 <= 0.815561304964
 cost_2_1: - t_2 + 1.073684210526 c_2 - 0.969000000000 d_2 <= 0.827588531064
 cost_2_2: - t_2 + 2.084210526316 c_2 - 1.881000000000 d_2 <= 1.606495383830
 cost_2_3: - t_2 + 2.105263157895 c_2 - 1.900000000000 d_2 <= 1.626722609929
 cost_3_0: - t_3 + 1.052631578947 c_3 - 0.950000000000 d_3 <= -0.922592918569
 cost_3_1: - t_3 + 1.073684210526 c_3 - 0.969000000000 d_3 <= -0.945328776940
 cost_3_2: - t_3 + 2.084210526316 c_3 - 1.881000000000 d_3 <= -1.835049978766
 cost_3_3: - t_3 + 2.105263157895 c_3 - 1.900000000000 d_3 <= -1.849585837138
 cost_4_0: - t_4 + 1.052631578947 c_4 - 0.950000000000 d_4 <= -0.890579040594
 cost_4_1: - t_4 + 1.084210526316 c_4 - 0.978500000000 d_4 <= -0.926875411812
 cost_4_2: - t_4 + 3.147368421053 c_4 - 2.840500000000 d_4 <= -2.690638331376
 cost_4_3: - t_4 + 3.157894736842 c_4 - 2.850000000000 d_4 <= -2.696637121782
 cost_5_0: - t_5 + 1.052631578947 c_5 - 0.950000000000 d_5 <= 1.646336973587
 cost_5_1: - t_5 + 1.084210526316 c_5 - 0.978500000000 d_5 <= 1.686148082794
 cost_5_2: - t_5 + 3.147368421053 c_5 - 2.840500000000 d_5 <= 4.894740551025
 cost_5_3: - t_5 + 3.157894736842 c_5 - 2.850000000000 d_5 <= 4.914110920760
 cost_6_0: - t_6 + 1.052631578947 c_6 - 0.950000000000 d_6 <= 1.634078724285
 cost_6_1: - t_6 + 1.094736842105 c_6 - 0.988000000000 d_6 <= 1.682385873256
 cost_6_2: - t_6 + 3.136842105263 c_6 - 2.831000000000 d_6 <= 4.820682598368
 cost_6_3: - t_6 + 3.157894736842 c_6 - 2.850000000000 d_6 <= 4.861036172854
 cost_7_0: - t_7 + 1.052631578947 c_7 - 0.950000000000 d_7 <= -0.992960887675
 cost_7_1: - t_7 + 1.094736842105 c_7 - 0.988000000000 d_7 <= -1.049735323182
 cost_7_2: - t_7 + 3.136842105263 c_7 - 2.831000000000 d_7 <= -3.007895445272
 cost_7_3: - t_7 + 3.157894736842 c_7 - 2.850000000000 d_7 <= -3.020082663025
 commitment: 1.052631578947 c_0 - 0.950000000000 d_0 <= -1.118360887675

Bounds
 -100000 <= t_0
 -100000 <= t_1
 -100000 <= t_2
 -100000 <= t_3
 -100000 <= t_4
 -100000 <= t_5
 -100000 <= t_6
 -100000 <= t_7
       c_0 <= 5
       c_1 <= 5
       c_2 <= 5
       c_3 <= 5
       c_4 <= 5
       c_5 <= 5
       c_6 <= 5
       c_7 <= 5
       d_0 <= 5
       d_1 <= 5
       d_2 <= 5
       d_3 <= 5
       d_4 <= 5
       d_5 <= 5
       d_6 <= 5
       d_7 <= 5
End
